Problem:    ambulanze
Rows:       53
Columns:    120 (96 integer, 0 binary)
Non-zeros:  1512
Status:     INTEGER OPTIMAL
Objective:  z = 6950 (MINimum)

   No.   Row name        Activity     Lower bound   Upper bound
------ ------------    ------------- ------------- -------------
     1 DefQ[0]                     0            -0             = 
     2 DefQ[1]                     0            -0             = 
     3 DefQ[2]                     0            -0             = 
     4 DefQ[3]                     0            -0             = 
     5 DefQ[4]                     0            -0             = 
     6 DefQ[5]                     0            -0             = 
     7 DefQ[6]                     0            -0             = 
     8 DefQ[7]                     0            -0             = 
     9 DefQ[8]                     0            -0             = 
    10 DefQ[9]                     0            -0             = 
    11 DefQ[10]                    0            -0             = 
    12 DefQ[11]                    0            -0             = 
    13 DefQ[12]                    0            -0             = 
    14 DefQ[13]                    0            -0             = 
    15 DefQ[14]                    0            -0             = 
    16 DefQ[15]                    0            -0             = 
    17 DefQ[16]                    0            -0             = 
    18 DefQ[17]                    0            -0             = 
    19 DefQ[18]                    0            -0             = 
    20 DefQ[19]                    0            -0             = 
    21 DefQ[20]                    0            -0             = 
    22 DefQ[21]                    0            -0             = 
    23 DefQ[22]                    0            -0             = 
    24 DefQ[23]                    0            -0             = 
    25 Fabbisogno[0]
                                   8             8               
    26 Fabbisogno[1]
                                   8             8               
    27 Fabbisogno[2]
                                   8             8               
    28 Fabbisogno[3]
                                   9             7               
    29 Fabbisogno[4]
                                   9             6               
    30 Fabbisogno[5]
                                   9             6               
    31 Fabbisogno[6]
                                  11             8               
    32 Fabbisogno[7]
                                  15             9               
    33 Fabbisogno[8]
                                  15            14               
    34 Fabbisogno[9]
                                  16            16               
    35 Fabbisogno[10]
                                  13            10               
    36 Fabbisogno[11]
                                  13             9               
    37 Fabbisogno[12]
                                  13             9               
    38 Fabbisogno[13]
                                  13             8               
    39 Fabbisogno[14]
                                  15             7               
    40 Fabbisogno[15]
                                  15            10               
    41 Fabbisogno[16]
                                  17            12               
    42 Fabbisogno[17]
                                  17            17               
    43 Fabbisogno[18]
                                  16            16               
    44 Fabbisogno[19]
                                  14            14               
    45 Fabbisogno[20]
                                  10            10               
    46 Fabbisogno[21]
                                   8             8               
    47 Fabbisogno[22]
                                   8             7               
    48 Fabbisogno[23]
                                   8             7               
    49 z                        6950                             
    50 Kappa[1]                    6                           6 
    51 Kappa[2]                    6                           6 
    52 Kappa[3]                    5                           6 
    53 Kappa[4]                    3                           6 

   No. Column name       Activity     Lower bound   Upper bound
------ ------------    ------------- ------------- -------------
     1 x[1,0]       *              6             0               
     2 x[1,1]       *              0             0               
     3 x[1,2]       *              0             0               
     4 x[1,3]       *              0             0               
     5 x[1,4]       *              0             0               
     6 x[1,5]       *              0             0               
     7 x[1,6]       *              0             0               
     8 x[1,7]       *              0             0               
     9 x[1,8]       *              0             0               
    10 x[1,9]       *              0             0               
    11 x[1,10]      *              0             0               
    12 x[1,11]      *              0             0               
    13 x[1,12]      *              0             0               
    14 x[1,13]      *              0             0               
    15 x[1,14]      *              0             0               
    16 x[1,15]      *              0             0               
    17 x[1,16]      *              0             0               
    18 x[1,17]      *              0             0               
    19 x[1,18]      *              0             0               
    20 x[1,19]      *              0             0               
    21 x[1,20]      *              0             0               
    22 x[1,21]      *              0             0               
    23 x[1,22]      *              0             0               
    24 x[1,23]      *              0             0               
    25 x[2,0]       *              0             0               
    26 x[2,12]      *              0             0               
    27 x[2,13]      *              0             0               
    28 x[2,14]      *              0             0               
    29 x[2,15]      *              0             0               
    30 x[2,16]      *              0             0               
    31 x[2,17]      *              0             0               
    32 x[2,18]      *              0             0               
    33 x[2,19]      *              0             0               
    34 x[2,20]      *              0             0               
    35 x[2,21]      *              0             0               
    36 x[2,22]      *              0             0               
    37 x[2,23]      *              0             0               
    38 x[3,0]       *              0             0               
    39 x[3,16]      *              2             0               
    40 x[3,17]      *              0             0               
    41 x[3,18]      *              0             0               
    42 x[3,19]      *              0             0               
    43 x[3,20]      *              0             0               
    44 x[3,21]      *              0             0               
    45 x[3,22]      *              0             0               
    46 x[3,23]      *              0             0               
    47 x[4,0]       *              0             0               
    48 x[4,18]      *              0             0               
    49 x[4,19]      *              0             0               
    50 x[4,20]      *              0             0               
    51 x[4,21]      *              0             0               
    52 x[4,22]      *              0             0               
    53 x[4,23]      *              0             0               
    54 x[2,1]       *              0             0               
    55 x[3,1]       *              2             0               
    56 x[4,1]       *              0             0               
    57 x[2,2]       *              0             0               
    58 x[3,2]       *              0             0               
    59 x[4,2]       *              0             0               
    60 x[2,3]       *              0             0               
    61 x[3,3]       *              0             0               
    62 x[4,3]       *              1             0               
    63 x[2,4]       *              0             0               
    64 x[3,4]       *              0             0               
    65 x[4,4]       *              0             0               
    66 x[2,5]       *              0             0               
    67 x[3,5]       *              0             0               
    68 x[4,5]       *              0             0               
    69 x[2,6]       *              2             0               
    70 x[3,6]       *              0             0               
    71 x[4,6]       *              0             0               
    72 x[2,7]       *              4             0               
    73 x[3,7]       *              0             0               
    74 x[4,7]       *              0             0               
    75 x[2,8]       *              0             0               
    76 x[3,8]       *              0             0               
    77 x[4,8]       *              0             0               
    78 x[2,9]       *              0             0               
    79 x[3,9]       *              1             0               
    80 x[4,9]       *              0             0               
    81 x[2,10]      *              0             0               
    82 x[3,10]      *              0             0               
    83 x[4,10]      *              0             0               
    84 x[2,11]      *              0             0               
    85 x[3,11]      *              0             0               
    86 x[4,11]      *              0             0               
    87 x[3,12]      *              0             0               
    88 x[4,12]      *              0             0               
    89 x[3,13]      *              0             0               
    90 x[4,13]      *              0             0               
    91 x[3,14]      *              0             0               
    92 x[4,14]      *              2             0               
    93 x[3,15]      *              0             0               
    94 x[4,15]      *              0             0               
    95 x[4,16]      *              0             0               
    96 x[4,17]      *              0             0               
    97 q[0]                        8             0               
    98 q[1]                        8             0               
    99 q[2]                        8             0               
   100 q[3]                        9             0               
   101 q[4]                        9             0               
   102 q[5]                        9             0               
   103 q[6]                       11             0               
   104 q[7]                       15             0               
   105 q[8]                       15             0               
   106 q[9]                       16             0               
   107 q[10]                      13             0               
   108 q[11]                      13             0               
   109 q[12]                      13             0               
   110 q[13]                      13             0               
   111 q[14]                      15             0               
   112 q[15]                      15             0               
   113 q[16]                      17             0               
   114 q[17]                      17             0               
   115 q[18]                      16             0               
   116 q[19]                      14             0               
   117 q[20]                      10             0               
   118 q[21]                       8             0               
   119 q[22]                       8             0               
   120 q[23]                       8             0               

Integer feasibility conditions:

KKT.PE: max.abs.err = 0.00e+00 on row 0
        max.rel.err = 0.00e+00 on row 0
        High quality

KKT.PB: max.abs.err = 0.00e+00 on row 0
        max.rel.err = 0.00e+00 on row 0
        High quality

End of output
